p edge 102 1233
n 0
n 1
n 2
n 3
n 4
n 5
n 6
n 7
n 8
n 9
n 10
n 11
n 12
n 13
n 14
n 15
n 16
n 17
n 18
n 19
n 20
n 21
n 22
n 23
n 24
n 25
n 26
n 27
n 28
n 29
n 30
n 31
n 32
n 33
n 34
n 35
n 36
n 37
n 38
n 39
n 40
n 41
n 42
n 43
n 44
n 45
n 46
n 47
n 48
n 49
n 50
n 51
n 52
n 53
n 54
n 55
n 56
n 57
n 58
n 59
n 60
n 61
n 62
n 63
n 64
n 65
n 66
n 67
n 68
n 69
n 70
n 71
n 72
n 73
n 74
n 75
n 76
n 77
n 78
n 79
n 80
n 81
n 82
n 83
n 84
n 85
n 86
n 87
n 88
n 89
n 90
n 91
n 92
n 93
n 94
n 95
n 96
n 97
n 98
n 99
n 100
n 101
e 1 0
e 2 0
e 2 1
e 3 0
e 3 1
e 3 2
e 4 0
e 4 1
e 4 2
e 4 3
e 5 0
e 5 1
e 5 2
e 5 3
e 5 4
e 6 0
e 6 1
e 6 2
e 6 3
e 6 4
e 6 5
e 7 0
e 7 1
e 7 2
e 7 3
e 7 4
e 7 5
e 7 6
e 8 0
e 8 1
e 8 2
e 8 3
e 8 4
e 8 5
e 8 6
e 8 7
e 9 0
e 10 0
e 10 9
e 11 0
e 11 9
e 11 10
e 12 0
e 12 9
e 12 10
e 12 11
e 13 0
e 13 9
e 13 10
e 13 11
e 13 12
e 14 0
e 14 9
e 14 10
e 14 11
e 14 12
e 14 13
e 15 0
e 15 9
e 15 10
e 15 11
e 15 12
e 15 13
e 15 14
e 16 0
e 16 1
e 16 2
e 16 9
e 16 10
e 16 11
e 16 12
e 16 13
e 16 14
e 16 15
e 17 0
e 17 1
e 17 2
e 17 3
e 17 9
e 17 10
e 17 11
e 17 12
e 17 13
e 17 14
e 17 15
e 17 16
e 18 0
e 18 1
e 18 2
e 18 3
e 18 4
e 18 9
e 18 10
e 18 11
e 18 12
e 18 13
e 18 14
e 18 15
e 18 16
e 18 17
e 19 0
e 19 1
e 19 2
e 19 3
e 19 4
e 19 9
e 19 10
e 19 11
e 19 12
e 19 13
e 19 14
e 19 15
e 19 16
e 19 17
e 19 18
e 20 0
e 20 1
e 20 2
e 20 3
e 20 4
e 20 9
e 20 10
e 20 11
e 20 12
e 20 13
e 20 14
e 20 15
e 20 16
e 20 17
e 20 18
e 20 19
e 21 0
e 21 1
e 21 2
e 21 3
e 21 4
e 21 9
e 21 10
e 21 11
e 21 12
e 21 13
e 21 14
e 21 15
e 21 16
e 21 17
e 21 18
e 21 19
e 21 20
e 22 0
e 22 1
e 22 2
e 22 3
e 22 4
e 22 9
e 22 10
e 22 11
e 22 12
e 22 13
e 22 14
e 22 15
e 22 16
e 22 17
e 22 18
e 22 19
e 22 20
e 22 21
e 23 0
e 23 1
e 23 2
e 23 3
e 23 4
e 23 5
e 23 9
e 23 10
e 23 11
e 23 12
e 23 13
e 23 14
e 23 15
e 23 16
e 23 17
e 23 18
e 23 19
e 23 20
e 23 21
e 23 22
e 24 0
e 24 1
e 24 2
e 24 3
e 24 4
e 24 5
e 24 9
e 24 10
e 24 11
e 24 12
e 24 13
e 24 14
e 24 15
e 24 16
e 24 17
e 24 18
e 24 19
e 24 20
e 24 21
e 24 22
e 24 23
e 25 0
e 25 1
e 25 2
e 25 3
e 25 4
e 25 5
e 25 9
e 25 10
e 25 11
e 25 12
e 25 13
e 25 14
e 25 15
e 25 16
e 25 17
e 25 18
e 25 19
e 25 20
e 25 21
e 25 22
e 25 23
e 25 24
e 26 0
e 26 1
e 26 2
e 26 3
e 26 4
e 26 5
e 26 9
e 26 10
e 26 11
e 26 12
e 26 13
e 26 14
e 26 15
e 26 16
e 26 17
e 26 18
e 26 19
e 26 20
e 26 21
e 26 22
e 26 23
e 26 24
e 26 25
e 27 0
e 27 1
e 27 2
e 27 3
e 27 4
e 27 5
e 27 9
e 27 10
e 27 11
e 27 12
e 27 13
e 27 14
e 27 15
e 27 16
e 27 17
e 27 18
e 27 19
e 27 20
e 27 21
e 27 22
e 27 23
e 27 24
e 27 25
e 27 26
e 28 0
e 28 1
e 28 2
e 28 3
e 28 4
e 28 5
e 28 6
e 28 9
e 28 10
e 28 11
e 28 12
e 28 13
e 28 14
e 28 15
e 28 16
e 28 17
e 28 18
e 28 19
e 28 20
e 28 21
e 28 22
e 28 23
e 28 24
e 28 25
e 28 26
e 28 27
e 29 0
e 29 9
e 30 0
e 30 9
e 30 10
e 31 0
e 31 9
e 31 10
e 31 11
e 32 0
e 32 9
e 32 10
e 32 11
e 32 12
e 32 31
e 33 0
e 33 9
e 33 10
e 33 11
e 33 12
e 34 0
e 34 9
e 34 10
e 34 11
e 34 12
e 34 13
e 35 0
e 35 9
e 35 10
e 35 11
e 35 12
e 35 13
e 35 34
e 36 0
e 36 9
e 36 10
e 36 11
e 36 12
e 36 13
e 37 0
e 37 9
e 37 10
e 37 11
e 37 12
e 37 13
e 37 14
e 37 15
e 38 0
e 38 9
e 38 10
e 38 11
e 38 12
e 38 13
e 38 14
e 38 15
e 38 37
e 39 0
e 39 1
e 39 2
e 40 0
e 40 1
e 41 0
e 42 0
e 42 41
e 43 0
e 43 42
e 44 0
e 44 43
e 45 0
e 45 9
e 45 15
e 46 0
e 46 9
e 46 15
e 46 45
e 47 0
e 47 9
e 47 15
e 47 45
e 47 46
e 48 0
e 48 9
e 48 15
e 48 45
e 48 46
e 48 47
e 49 0
e 49 9
e 49 15
e 49 45
e 49 46
e 49 47
e 49 48
e 50 0
e 50 15
e 50 45
e 50 46
e 50 47
e 50 48
e 50 49
e 51 0
e 51 45
e 51 46
e 51 47
e 51 48
e 51 49
e 51 50
e 52 0
e 53 0
e 54 0
e 54 1
e 54 39
e 55 0
e 55 1
e 55 39
e 55 54
e 56 0
e 56 1
e 56 39
e 56 54
e 56 55
e 57 0
e 57 1
e 57 39
e 57 54
e 57 55
e 57 56
e 58 0
e 58 1
e 58 39
e 58 54
e 58 55
e 58 56
e 58 57
e 59 0
e 59 1
e 59 39
e 59 54
e 59 55
e 59 56
e 59 57
e 59 58
e 60 0
e 60 1
e 60 39
e 60 55
e 60 56
e 60 57
e 60 58
e 60 59
e 61 0
e 61 1
e 61 39
e 61 57
e 61 58
e 61 59
e 61 60
e 62 0
e 62 1
e 62 39
e 62 54
e 62 55
e 62 56
e 62 57
e 62 58
e 62 59
e 62 60
e 62 61
e 63 0
e 63 1
e 63 39
e 63 54
e 63 55
e 63 56
e 63 57
e 63 58
e 63 59
e 63 60
e 63 61
e 63 62
e 64 0
e 64 1
e 64 39
e 64 62
e 64 63
e 65 0
e 65 1
e 65 39
e 65 54
e 65 55
e 65 56
e 65 57
e 65 58
e 65 59
e 65 60
e 65 61
e 65 62
e 65 63
e 65 64
e 66 0
e 66 1
e 66 39
e 66 59
e 66 60
e 66 61
e 66 62
e 66 63
e 66 64
e 66 65
e 67 0
e 67 1
e 67 39
e 67 61
e 67 62
e 67 63
e 67 64
e 67 65
e 67 66
e 68 0
e 68 1
e 68 39
e 68 63
e 68 64
e 68 65
e 68 66
e 68 67
e 69 0
e 69 1
e 69 39
e 69 64
e 69 65
e 69 66
e 69 67
e 69 68
e 70 0
e 70 1
e 70 39
e 70 65
e 70 66
e 70 67
e 70 68
e 70 69
e 71 0
e 71 1
e 71 39
e 71 67
e 71 68
e 71 69
e 71 70
e 72 0
e 72 1
e 72 39
e 73 0
e 73 1
e 73 39
e 73 54
e 73 55
e 73 56
e 73 57
e 73 58
e 73 59
e 73 60
e 73 61
e 73 62
e 73 63
e 73 64
e 73 65
e 73 66
e 73 67
e 73 68
e 73 69
e 73 70
e 73 71
e 73 72
e 74 0
e 74 1
e 74 39
e 74 72
e 74 73
e 75 0
e 75 1
e 75 39
e 75 54
e 75 55
e 75 56
e 75 57
e 75 58
e 75 59
e 75 62
e 75 63
e 75 65
e 75 73
e 76 0
e 76 1
e 76 39
e 76 54
e 76 55
e 76 56
e 76 57
e 76 58
e 76 59
e 76 62
e 76 63
e 76 65
e 76 73
e 77 0
e 78 0
e 78 1
e 78 39
e 78 54
e 78 55
e 78 56
e 78 57
e 78 58
e 78 59
e 78 62
e 78 63
e 78 65
e 78 73
e 79 0
e 80 0
e 80 79
e 81 0
e 81 79
e 81 80
e 82 0
e 82 79
e 82 80
e 82 81
e 83 0
e 83 1
e 83 39
e 83 54
e 83 55
e 83 56
e 83 57
e 83 58
e 83 59
e 83 62
e 83 63
e 83 65
e 83 73
e 84 0
e 85 0
e 86 16
e 86 17
e 86 18
e 86 19
e 86 20
e 86 21
e 86 22
e 86 23
e 86 24
e 86 25
e 86 26
e 86 27
e 86 28
e 86 39
e 86 40
e 86 41
e 86 42
e 86 43
e 86 44
e 86 45
e 86 46
e 86 47
e 86 54
e 86 55
e 86 56
e 86 57
e 86 58
e 86 59
e 86 60
e 86 61
e 86 62
e 86 63
e 86 64
e 86 65
e 86 66
e 86 67
e 86 68
e 86 69
e 86 70
e 86 71
e 86 72
e 86 73
e 86 74
e 86 75
e 86 76
e 86 78
e 86 83
e 87 39
e 87 40
e 87 54
e 87 55
e 87 56
e 87 57
e 87 58
e 87 59
e 87 60
e 87 61
e 87 62
e 87 63
e 87 64
e 87 65
e 87 66
e 87 67
e 87 68
e 87 69
e 87 70
e 87 71
e 87 72
e 87 73
e 87 74
e 87 75
e 87 76
e 87 78
e 87 83
e 87 86
e 88 39
e 88 40
e 88 54
e 88 55
e 88 56
e 88 57
e 88 58
e 88 59
e 88 60
e 88 61
e 88 62
e 88 63
e 88 64
e 88 65
e 88 66
e 88 67
e 88 68
e 88 69
e 88 70
e 88 71
e 88 72
e 88 73
e 88 74
e 88 75
e 88 76
e 88 78
e 88 83
e 88 86
e 88 87
e 89 39
e 89 40
e 89 54
e 89 55
e 89 56
e 89 57
e 89 58
e 89 59
e 89 60
e 89 61
e 89 62
e 89 63
e 89 64
e 89 65
e 89 66
e 89 67
e 89 68
e 89 69
e 89 70
e 89 71
e 89 72
e 89 73
e 89 74
e 89 75
e 89 76
e 89 78
e 89 83
e 89 86
e 89 87
e 89 88
e 90 39
e 90 40
e 90 54
e 90 55
e 90 56
e 90 57
e 90 58
e 90 59
e 90 60
e 90 61
e 90 62
e 90 63
e 90 64
e 90 65
e 90 66
e 90 67
e 90 68
e 90 69
e 90 70
e 90 71
e 90 72
e 90 73
e 90 74
e 90 75
e 90 76
e 90 78
e 90 83
e 90 86
e 90 87
e 90 88
e 90 89
e 91 17
e 91 39
e 91 40
e 91 54
e 91 55
e 91 56
e 91 57
e 91 58
e 91 59
e 91 60
e 91 61
e 91 62
e 91 63
e 91 64
e 91 65
e 91 66
e 91 67
e 91 68
e 91 69
e 91 70
e 91 71
e 91 72
e 91 73
e 91 74
e 91 75
e 91 76
e 91 78
e 91 83
e 91 86
e 91 87
e 91 88
e 91 89
e 91 90
e 92 17
e 92 18
e 92 39
e 92 40
e 92 54
e 92 55
e 92 56
e 92 57
e 92 58
e 92 59
e 92 60
e 92 61
e 92 62
e 92 63
e 92 64
e 92 65
e 92 66
e 92 67
e 92 68
e 92 69
e 92 70
e 92 71
e 92 72
e 92 73
e 92 74
e 92 75
e 92 76
e 92 78
e 92 83
e 92 86
e 92 87
e 92 88
e 92 89
e 92 90
e 92 91
e 93 17
e 93 18
e 93 19
e 93 39
e 93 40
e 93 54
e 93 55
e 93 56
e 93 57
e 93 58
e 93 59
e 93 60
e 93 61
e 93 62
e 93 63
e 93 64
e 93 65
e 93 66
e 93 67
e 93 68
e 93 69
e 93 70
e 93 71
e 93 72
e 93 73
e 93 74
e 93 75
e 93 76
e 93 78
e 93 83
e 93 86
e 93 87
e 93 88
e 93 89
e 93 90
e 93 91
e 93 92
e 94 17
e 94 18
e 94 19
e 94 20
e 94 39
e 94 40
e 94 54
e 94 55
e 94 56
e 94 57
e 94 58
e 94 59
e 94 60
e 94 61
e 94 62
e 94 63
e 94 64
e 94 65
e 94 66
e 94 67
e 94 68
e 94 69
e 94 70
e 94 71
e 94 72
e 94 73
e 94 74
e 94 75
e 94 76
e 94 78
e 94 83
e 94 86
e 94 87
e 94 88
e 94 89
e 94 90
e 94 91
e 94 92
e 94 93
e 95 17
e 95 18
e 95 19
e 95 20
e 95 21
e 95 39
e 95 40
e 95 54
e 95 55
e 95 56
e 95 57
e 95 58
e 95 59
e 95 60
e 95 61
e 95 62
e 95 63
e 95 64
e 95 65
e 95 66
e 95 67
e 95 68
e 95 69
e 95 70
e 95 71
e 95 72
e 95 73
e 95 74
e 95 75
e 95 76
e 95 78
e 95 83
e 95 86
e 95 87
e 95 88
e 95 89
e 95 90
e 95 91
e 95 92
e 95 93
e 95 94
e 96 39
e 96 40
e 96 54
e 96 55
e 96 56
e 96 57
e 96 58
e 96 59
e 96 60
e 96 61
e 96 62
e 96 63
e 96 64
e 96 65
e 96 66
e 96 67
e 96 68
e 96 69
e 96 70
e 96 71
e 96 72
e 96 73
e 96 74
e 96 75
e 96 76
e 96 78
e 96 83
e 96 86
e 96 87
e 96 88
e 96 89
e 96 90
e 96 91
e 96 92
e 96 93
e 96 94
e 96 95
e 97 39
e 97 40
e 97 54
e 97 55
e 97 56
e 97 57
e 97 58
e 97 59
e 97 60
e 97 61
e 97 62
e 97 63
e 97 64
e 97 65
e 97 66
e 97 67
e 97 68
e 97 69
e 97 70
e 97 71
e 97 72
e 97 73
e 97 74
e 97 75
e 97 76
e 97 78
e 97 83
e 97 86
e 97 87
e 97 88
e 97 89
e 97 90
e 97 91
e 97 92
e 97 93
e 97 94
e 97 95
e 97 96
e 98 39
e 98 40
e 98 54
e 98 55
e 98 56
e 98 57
e 98 58
e 98 59
e 98 60
e 98 61
e 98 62
e 98 63
e 98 64
e 98 65
e 98 66
e 98 67
e 98 68
e 98 69
e 98 70
e 98 71
e 98 72
e 98 73
e 98 74
e 98 75
e 98 76
e 98 78
e 98 83
e 98 86
e 98 87
e 98 88
e 98 89
e 98 90
e 98 91
e 98 92
e 98 93
e 98 94
e 98 95
e 98 96
e 98 97
e 99 39
e 99 40
e 99 54
e 99 55
e 99 56
e 99 57
e 99 58
e 99 59
e 99 60
e 99 61
e 99 62
e 99 63
e 99 64
e 99 65
e 99 66
e 99 67
e 99 68
e 99 69
e 99 70
e 99 71
e 99 72
e 99 73
e 99 74
e 99 75
e 99 76
e 99 78
e 99 83
e 99 86
e 99 87
e 99 88
e 99 89
e 99 90
e 99 91
e 99 92
e 99 93
e 99 94
e 99 95
e 99 96
e 99 97
e 99 98
e 100 39
e 100 40
e 100 54
e 100 55
e 100 56
e 100 57
e 100 58
e 100 59
e 100 60
e 100 61
e 100 62
e 100 63
e 100 64
e 100 65
e 100 66
e 100 67
e 100 68
e 100 69
e 100 70
e 100 71
e 100 72
e 100 73
e 100 74
e 100 75
e 100 76
e 100 78
e 100 83
e 100 86
e 100 87
e 100 88
e 100 89
e 100 90
e 100 91
e 100 92
e 100 93
e 100 94
e 100 95
e 100 96
e 100 97
e 100 98
e 100 99
e 101 39
e 101 40
e 101 54
e 101 55
e 101 56
e 101 57
e 101 58
e 101 59
e 101 60
e 101 61
e 101 62
e 101 63
e 101 64
e 101 65
e 101 66
e 101 67
e 101 68
e 101 69
e 101 70
e 101 71
e 101 72
e 101 73
e 101 74
e 101 75
e 101 76
e 101 78
e 101 83
e 101 86
e 101 87
e 101 88
e 101 89
e 101 90
e 101 91
e 101 92
e 101 93
e 101 94
e 101 95
e 101 96
e 101 97
e 101 98
e 101 99
e 101 100
